NAME: instance_1155
TYPE: TSP
DIMENSION: 20
EDGE_WEIGHT_TYPE: EUC_2D
NODE_COORD_SECTION
0 27.49 78.59
1 79.92 99.60
2 98.24 70.76
3 91.86 51.86
4 95.90 96.70
5 40.52 11.73
6 89.93 32.40
7 14.86 64.59
8 32.55 15.55
9 7.12 45.30
10 87.34 39.19
11 92.32 68.60
12 81.23 67.99
13 1.07 5.67
14 92.50 66.59
15 19.34 63.70
16 80.81 44.23
17 26.91 92.02
18 33.85 21.01
19 53.87 29.98
EOF
